begin projections
Si:sp3
end projections

dis_win_min=-7 !outer energy window
dis_win_max=17 !Top of the outer energy window
dis_froz_min=  -7 !Bottom of the inner (frozen) energy window
dis_froz_max = 7 !


num_wann =     8  ! set to NBANDS by VASP

begin kpoint_path
L 0.50000 0.50000 0.5000 G 0.00000 0.00000 0.0000
G 0.00000 0.00000 0.0000 X 0.50000 0.00000 0.5000
X 0.50000 -0.50000 0.0000 K 0.37500 -0.37500 0.0000
K 0.37500 -0.37500 0.0000 G 0.00000 0.00000 0.0000
end kpoint_path


bands_plot = .true.

bands_plot_format = 'gnuplot'

bands_num_points = 101


begin unit_cell_cart
     2.7150000     2.7150000     0.0000000
     0.0000000     2.7150000     2.7150000
     2.7150000     0.0000000     2.7150000
end unit_cell_cart

begin atoms_cart
Si       0.0000000     0.0000000     0.0000000
Si       1.3575000     1.3575000     1.3575000
end atoms_cart

mp_grid =     4     4     4

begin kpoints
      0.000000000000      0.000000000000      0.000000000000
      0.250000000000      0.000000000000      0.000000000000
      0.500000000000      0.000000000000      0.000000000000
      0.250000000000      0.250000000000      0.000000000000
      0.500000000000      0.250000000000      0.000000000000
     -0.250000000000      0.250000000000      0.000000000000
      0.500000000000      0.500000000000      0.000000000000
     -0.250000000000      0.500000000000      0.250000000000
      0.000000000000      0.250000000000      0.000000000000
      0.000000000000      0.000000000000      0.250000000000
     -0.250000000000     -0.250000000000     -0.250000000000
     -0.250000000000      0.000000000000      0.000000000000
      0.000000000000     -0.250000000000      0.000000000000
      0.000000000000      0.000000000000     -0.250000000000
      0.250000000000      0.250000000000      0.250000000000
      0.000000000000      0.500000000000      0.000000000000
      0.000000000000      0.000000000000      0.500000000000
     -0.500000000000     -0.500000000000     -0.500000000000
      0.000000000000      0.250000000000      0.250000000000
      0.250000000000      0.000000000000      0.250000000000
     -0.250000000000     -0.250000000000      0.000000000000
     -0.250000000000      0.000000000000     -0.250000000000
      0.000000000000     -0.250000000000     -0.250000000000
      0.000000000000      0.500000000000      0.250000000000
      0.250000000000      0.000000000000      0.500000000000
     -0.250000000000     -0.250000000000      0.250000000000
     -0.500000000000     -0.250000000000     -0.500000000000
      0.250000000000      0.500000000000      0.000000000000
      0.250000000000     -0.250000000000     -0.250000000000
     -0.500000000000     -0.500000000000     -0.250000000000
      0.000000000000      0.250000000000      0.500000000000
     -0.250000000000      0.250000000000     -0.250000000000
     -0.250000000000     -0.500000000000     -0.500000000000
      0.500000000000      0.000000000000      0.250000000000
     -0.500000000000     -0.250000000000      0.000000000000
      0.000000000000     -0.500000000000     -0.250000000000
     -0.250000000000      0.000000000000     -0.500000000000
      0.250000000000      0.250000000000     -0.250000000000
      0.500000000000      0.250000000000      0.500000000000
     -0.250000000000     -0.500000000000      0.000000000000
     -0.250000000000      0.250000000000      0.250000000000
      0.500000000000      0.500000000000      0.250000000000
      0.000000000000     -0.250000000000     -0.500000000000
      0.250000000000     -0.250000000000      0.250000000000
      0.250000000000      0.500000000000      0.500000000000
     -0.500000000000      0.000000000000     -0.250000000000
      0.000000000000     -0.250000000000      0.250000000000
      0.250000000000      0.000000000000     -0.250000000000
     -0.250000000000     -0.250000000000     -0.500000000000
      0.250000000000      0.500000000000      0.250000000000
      0.250000000000     -0.250000000000      0.000000000000
     -0.500000000000     -0.250000000000     -0.250000000000
      0.250000000000      0.250000000000      0.500000000000
      0.000000000000      0.250000000000     -0.250000000000
     -0.250000000000     -0.500000000000     -0.250000000000
      0.500000000000      0.250000000000      0.250000000000
     -0.250000000000      0.000000000000      0.250000000000
      0.000000000000      0.500000000000      0.500000000000
      0.500000000000      0.000000000000      0.500000000000
      0.250000000000     -0.250000000000      0.500000000000
      0.500000000000      0.250000000000     -0.250000000000
     -0.500000000000     -0.250000000000     -0.750000000000
      0.250000000000     -0.500000000000     -0.250000000000
     -0.250000000000      0.250000000000     -0.500000000000
end kpoints
