
EDIFF = 1.0e-8
ENCUT = 500
ISIF = 2
ISMEAR = 0
LCHARG = .FALSE.
LREAL = .FALSE.
NBANDS = 8
NEDOS = 2000
PREC = Accurate
SYSTEM = Si

LWANNIER90 = .TRUE.