System = fcc Si 
ISMEAR = 0; SIGMA = 0.1;
ISYM = 2
