ALGO = All
EDIFF = 1.0e-8
ENCUT = 550
ISIF = 2
ISMEAR = 0; SIGMA = 0.1;
ISYM = 3
LCHARG = .FALSE.
LREAL = .FALSE.

PREC = Accurate
SYSTEM = Si

LHFCALC = .TRUE.
HFSCREEN = 0.2